(set-logic QF_LIA)
(declare-fun x0 () Int)
(declare-fun x1 () Int)
(declare-fun x2 () Int)
(declare-fun x3 () Int)
(declare-fun x4 () Int)
(declare-fun x5 () Int)
(declare-fun x6 () Int)
(declare-fun x7 () Int)
(declare-fun x8 () Int)
(declare-fun x9 () Int)
(declare-fun A0 () Bool)
(declare-fun A1 () Bool)
(declare-fun A2 () Bool)
(declare-fun A3 () Bool)
(declare-fun A4 () Bool)
(declare-fun A5 () Bool)
(declare-fun A6 () Bool)
(declare-fun A7 () Bool)
(declare-fun A8 () Bool)
(declare-fun A9 () Bool)
(assert (let ((.def_0 (not A8))) (let ((.def_1 (* (- 1) x7))) (let ((.def_2 (* 1 x0))) (let ((.def_3 (+ .def_2 .def_1))) (let ((.def_4 (< .def_3 (- 1)))) (let ((.def_5 (not .def_4))) (let ((.def_6 (and .def_5 .def_0))) (let ((.def_7 (not A9))) (let ((.def_8 (and A7 .def_7))) (let ((.def_9 (or .def_8 .def_6))) (let ((.def_10 (not .def_9))) (let ((.def_11 (not A6))) (let ((.def_12 (or .def_11 A1))) (let ((.def_13 (not A3))) (let ((.def_14 (* 1 x2))) (let ((.def_15 (+ .def_2 .def_14))) (let ((.def_16 (< .def_15 1))) (let ((.def_17 (not .def_16))) (let ((.def_18 (or .def_17 .def_13))) (let ((.def_19 (or .def_18 .def_12))) (let ((.def_20 (not .def_19))) (let ((.def_21 (= .def_20 .def_10))) (let ((.def_22 (* 1 x9))) (let ((.def_23 (+ .def_22 .def_1))) (let ((.def_24 (< .def_23 1))) (let ((.def_25 (not .def_24))) (let ((.def_26 (not A0))) (let ((.def_27 (and .def_26 .def_25))) (let ((.def_28 (not A7))) (let ((.def_29 (and .def_28 .def_0))) (let ((.def_30 (or .def_29 .def_27))) (let ((.def_31 (not A5))) (let ((.def_32 (* 1 x5))) (let ((.def_33 (< .def_32 (- 1)))) (let ((.def_34 (not .def_33))) (let ((.def_35 (and .def_34 .def_31))) (let ((.def_36 (not .def_35))) (let ((.def_37 (and A2 .def_26))) (let ((.def_38 (not .def_37))) (let ((.def_39 (= .def_38 .def_36))) (let ((.def_40 (not .def_39))) (let ((.def_41 (= .def_40 .def_30))) (let ((.def_42 (not .def_41))) (let ((.def_43 (and .def_42 .def_21))) (let ((.def_44 (not .def_43))) (let ((.def_45 (* (- 1) x1))) (let ((.def_46 (< .def_45 (- 1)))) (let ((.def_47 (not .def_46))) (let ((.def_48 (or .def_47 .def_0))) (let ((.def_49 (* (- 1) x4))) (let ((.def_50 (* (- 1) x6))) (let ((.def_51 (+ .def_50 .def_49))) (let ((.def_52 (< .def_51 (- 1)))) (let ((.def_53 (and .def_52 .def_13))) (let ((.def_54 (not .def_53))) (let ((.def_55 (or .def_54 .def_48))) (let ((.def_56 (not .def_55))) (let ((.def_57 (< .def_14 1))) (let ((.def_58 (not .def_57))) (let ((.def_59 (or A4 .def_58))) (let ((.def_60 (not .def_59))) (let ((.def_61 (< .def_22 (- 1)))) (let ((.def_62 (not .def_61))) (let ((.def_63 (or .def_31 .def_62))) (let ((.def_64 (= .def_63 .def_60))) (let ((.def_65 (and .def_64 .def_56))) (let ((.def_66 (* (- 1) x5))) (let ((.def_67 (< .def_66 1))) (let ((.def_68 (* (- 1) x9))) (let ((.def_69 (< .def_68 (- 1)))) (let ((.def_70 (not .def_69))) (let ((.def_71 (and .def_70 .def_67))) (let ((.def_72 (and .def_61 A7))) (let ((.def_73 (or .def_72 .def_71))) (let ((.def_74 (< .def_14 (- 1)))) (let ((.def_75 (and A5 .def_74))) (let ((.def_76 (not .def_75))) (let ((.def_77 (* 1 x3))) (let ((.def_78 (< .def_77 (- 1)))) (let ((.def_79 (and A8 .def_78))) (let ((.def_80 (and .def_79 .def_76))) (let ((.def_81 (not .def_80))) (let ((.def_82 (and .def_81 .def_73))) (let ((.def_83 (not .def_82))) (let ((.def_84 (and .def_83 .def_65))) (let ((.def_85 (or .def_84 .def_44))) (let ((.def_86 (not .def_85))) (let ((.def_87 (<= x9 1))) (let ((.def_88 (<= 0 x9))) (let ((.def_89 (<= x8 1))) (let ((.def_90 (<= 0 x8))) (let ((.def_91 (<= x7 1))) (let ((.def_92 (<= 0 x7))) (let ((.def_93 (<= x6 1))) (let ((.def_94 (<= 0 x6))) (let ((.def_95 (<= x5 1))) (let ((.def_96 (<= 0 x5))) (let ((.def_97 (<= x4 1))) (let ((.def_98 (<= 0 x4))) (let ((.def_99 (<= x3 1))) (let ((.def_100 (<= 0 x3))) (let ((.def_101 (<= x2 1))) (let ((.def_102 (<= 0 x2))) (let ((.def_103 (<= x1 1))) (let ((.def_104 (<= 0 x1))) (let ((.def_105 (<= x0 1))) (let ((.def_106 (<= 0 x0))) (let ((.def_107 (and .def_106 .def_105 .def_104 .def_103 .def_102 .def_101 .def_100 .def_99 .def_98 .def_97 .def_96 .def_95 .def_94 .def_93 .def_92 .def_91 .def_90 .def_89 .def_88 .def_87 .def_86))) .def_107)))))))))))))))))))))))))))))))))))))))))))))))))))))))))))))))))))))))))))))))))))))))))))))))))))))))))))))
(check-sat)
